10	36
0	1	16
0	2	5
0	3	47
0	4	65
0	5	97
0	8	70
0	9	35
1	2	77
1	4	17
1	7	84
1	9	51
2	3	25
2	4	83
2	5	23
2	6	10
2	7	42
2	8	18
2	9	27
3	4	97
3	5	73
3	6	2
3	7	23
3	8	33
3	9	72
4	5	35
4	6	21
4	7	74
4	8	2
5	6	19
5	7	91
5	8	69
5	9	47
6	7	30
6	9	34
7	8	83
8	9	2
